language ESSENCE' 1.0

letting fixed be 
[
    [0,0,0,0,2,4,7,3,0],
    [5,4,0,3,7,0,2,6,0],
    [2,3,7,0,0,0,0,0,4],
    [7,0,0,0,3,0,8,4,0],
    [0,0,3,4,8,1,0,0,0],
    [0,8,4,0,6,0,0,0,3],
    [3,0,0,0,0,0,0,5,9],
    [0,7,0,0,9,3,0,0,2],
    [0,0,6,2,0,0,3,0,0]
]